50
17476

937 870
547 644
978 570
566 505
726 462
672 557
505 836
384 341
304 373
8 522
557 44
296 276
268 581
139 799
70 576
897 705
407 848
230 618
677 559
768 600
604 304
991 504
476 681
181 192
374 808
798 5
315 621
233 727
399 576
118 768
722 318
321 708
139 870
217 525
237 660
606 539
257 973
760 51
815 385
497 635
441 454
62 809
412 464
262 388
1000 436
787 659
226 952
767 78
480 745
597 233
